Version identifier: 22.1.0.0 | 2022-03-09 | 1a383f8ce
CPXPARAM_Threads                                 1
CPXPARAM_MIP_Strategy_VariableSelect             3
CPXPARAM_TimeLimit                               596.09116236800003
1 of 1 MIP starts provided solutions.
MIP start 'm1' defined initial solution with objective 293.0000.
Tried aggregator 2 times.
MIP Presolve eliminated 40 rows and 1 columns.
MIP Presolve added 36 rows and 9 columns.
MIP Presolve modified 33 coefficients.
Aggregator did 9 substitutions.
Reduced MIP has 1813 rows, 7800 columns, and 137529 nonzeros.
Reduced MIP has 7800 binaries, 0 generals, 0 SOSs, and 0 indicators.
Presolve time = 0.20 sec. (226.77 ticks)
Probing time = 0.03 sec. (26.83 ticks)
Tried aggregator 1 time.
Detecting symmetries...
MIP Presolve modified 9 coefficients.
Reduced MIP has 1813 rows, 7800 columns, and 137835 nonzeros.
Reduced MIP has 7800 binaries, 0 generals, 0 SOSs, and 0 indicators.
Presolve time = 0.15 sec. (177.10 ticks)
Probing time = 0.03 sec. (26.85 ticks)
Clique table members: 603.
MIP emphasis: balance optimality and feasibility.
MIP search method: dynamic search.
Parallel mode: none, using 1 thread.
Root relaxation solution time = 1.39 sec. (1736.90 ticks)

        Nodes                                         Cuts/
   Node  Left     Objective  IInf  Best Integer    Best Bound    ItCnt     Gap

*     0+    0                          293.0000    45150.0000              --- 
      0     0      300.0000  1152      293.0000      300.0000     4733    2.39%
*     0+    0                          300.0000      300.0000             0.00%
      0     0        cutoff            300.0000      300.0000     4733    0.00%
Elapsed time = 6.98 sec. (8109.18 ticks, tree = 0.01 MB, solutions = 2)

Root node processing (before b&c):
  Real time             =    6.98 sec. (8109.48 ticks)
Sequential b&c:
  Real time             =    0.00 sec. (0.00 ticks)
                          ------------
Total (root+branch&cut) =    6.98 sec. (8109.48 ticks)
Primal:	300
Dual:	300
Status:	Optimal
Time:	7.01
Sequence:
	20
	24
	14
	22
	21
	12
	20
	2
	10
	16
	15
	24
	20
	2
	16
	21
	13
	17
	13
	10
	19
	11
	16
	6
	13
	17
	13
	21
	13
	11
	16
	13
	16
	11
	19
	10
	13
	17
	13
	21
	13
	11
	16
	6
	16
	1
	13
	21
	13
	17
	13
	23
	14
	9
	5
	13
	20
	8
	24
	14
	13
	11
	16
	13
	14
	9
	6
	12
	13
	15
	23
	10
	19
	11
	16
	7
	23
	15
	13
	14
	24
	11
	16
	6
	16
	11
	9
	16
	7
	16
	11
	24
	14
	16
	9
	10
	24
	14
	8
	7
	24
	14
	2
	16
	10
	13
	15
	23
	14
	13
	15
	24
	19
	20
	9
	21
	13
	16
	11
	19
	20
	9
	14
	24
	16
	1
	24
	14
	9
	14
	13
	10
	8
	6
	16
	7
	9
	14
	0
	21
	22
	4
	22
	11
	19
	21
	22
	10
	13
	16
	15
	23
	6
	16
	2
	21
	23
	14
	2
	16
	21
	13
	11
	24
	21
	16
	9
	10
	19
	17
	13
	10
	24
	15
	16
	10
	24
	11
	16
	21
	24
	11
	24
	19
	14
	9
	11
	24
	21
	16
	11
	24
	20
	16
	15
	23
	10
	13
	17
	16
	6
	13
	1
	12
	19
	11
	13
	21
	13
	17
	24
	21
	13
	11
	19
	7
	19
	11
	23
	21
	2
	14
	13
	10
	8
	6
	16
	10
	2
	14
	13
	5
	2
	10
	3
	10
	16
	6
	9
	5
	13
	14
	22
	6
	12
	6
	8
	6
	13
	14
	22
	21
	24
	10
	3
	20
	12
	6
	9
	14
	13
	21
	2
	10
	16
	6
	8
	10
	24
	14
	2
	12
	20
	2
	21
	22
	21
	23
	18
	16
	19
	23
	22
	21
	23
	17
	24
	10
	19
	11
	12
	6
	13
	15
	23
	14
	9
	7
	12
	10
